c t wmc
c file mc2022_track2_017.cnf
p cnf 126 672
-88 81 75 53 103 0
-22 51 44 -123 -77 0
-28 96 59 -68 -16 0
65 92 -35 4 36 0
101 -14 -121 -18 -33 0
88 81 -75 -53 -103 0
99 7 19 83 -49 0
56 126 -106 -55 -17 0
-4 36 -119 3 -23 0
10 -13 -47 -21 -93 0
18 -33 -80 -54 97 0
-22 51 -44 123 -77 0
4 -36 119 3 23 0
-55 -17 82 26 -107 0
-125 -90 1 65 -92 0
64 84 86 48 105 0
-43 -109 -85 -46 -24 0
-18 -33 -80 -54 -97 0
-48 -105 -57 45 117 0
50 8 38 95 -61 0
50 -8 38 95 61 0
-29 60 12 -72 67 0
95 -61 -116 20 120 0
56 -126 -106 55 -17 0
-46 24 70 112 -27 0
-34 63 110 114 74 0
5 104 -32 10 -13 0
-34 -63 110 114 -74 0
-34 -63 -110 114 74 0
100 -58 -6 -50 -8 0
-30 -52 -124 -5 104 0
-3 -23 -91 -29 -60 0
-3 -23 91 -29 60 0
-123 77 -94 -43 109 0
3 -23 -91 29 -60 0
-54 97 -31 15 -41 0
-114 74 -11 -125 -90 0
101 14 121 18 33 0
56 -126 106 55 17 0
-10 -13 47 21 93 0
72 67 40 -64 84 0
28 -96 -59 -68 16 0
-64 -84 86 -48 -105 0
43 -109 -85 -46 24 0
-100 58 -6 -50 -8 0
125 90 1 65 -92 0
43 109 -85 -46 -24 0
102 -73 -89 -30 52 0
29 60 12 72 67 0
-5 -104 32 10 13 0
55 -17 -82 -26 107 0
-88 81 -75 -53 103 0
114 74 11 125 90 0
-99 -7 19 83 -49 0
-64 84 86 -48 105 0
-79 76 -98 102 73 0
46 -24 -70 112 27 0
-34 63 -110 -114 74 0
-123 -77 -94 43 109 0
-15 -41 69 -25 62 0
100 58 6 50 8 0
43 109 85 46 -24 0
-50 8 38 -95 -61 0
-20 -120 -113 -101 14 0
-28 -96 -59 68 16 0
83 -49 108 -39 122 0
-125 90 -1 -65 92 0
83 -49 -108 -39 -122 0
5 104 32 -10 -13 0
102 -73 -89 30 -52 0
112 27 118 -99 7 0
30 52 124 -5 -104 0
-83 -49 108 -39 -122 0
-50 -8 -38 95 61 0
15 41 69 25 -62 0
34 63 -110 114 74 0
-78 111 2 100 -58 0
-112 -27 118 -99 7 0
5 -104 -32 -10 -13 0
-72 67 40 64 84 0
26 107 -9 -79 76 0
68 16 66 -22 51 0
-54 -97 -31 15 41 0
55 -17 -82 26 -107 0
53 -103 -42 -34 63 0
102 -73 89 -30 -52 0
-3 23 -91 29 -60 0
18 33 80 -54 97 0
78 -111 2 100 -58 0
55 17 82 -26 107 0
3 23 91 29 -60 0
-72 67 -40 -64 84 0
48 105 57 -45 117 0
125 90 -1 65 92 0
-100 58 6 -50 8 0
-79 -76 -98 -102 73 0
26 -107 9 79 -76 0
-101 -14 121 18 33 0
-88 -81 -75 -53 -103 0
30 -52 -124 5 104 0
-29 -60 12 -72 -67 0
125 90 1 -65 92 0
5 104 -32 -10 13 0
4 36 -119 -3 -23 0
-5 104 -32 -10 -13 0
72 -67 40 -64 -84 0
3 -23 91 29 60 0
-99 7 -19 -83 49 0
-4 36 119 -3 -23 0
102 73 89 30 -52 0
101 14 -121 18 -33 0
-21 93 71 88 -81 0
112 -27 118 -99 -7 0
-48 105 -57 45 -117 0
-78 -111 -2 100 -58 0
-95 61 -116 20 120 0
-39 122 -37 -78 -111 0
123 77 -94 -43 -109 0
45 -117 115 -28 -96 0
100 58 -6 -50 8 0
15 41 -69 -25 -62 0
-10 13 -47 -21 -93 0
-45 117 115 -28 -96 0
-34 -63 110 -114 74 0
-20 120 113 -101 14 0
-22 -51 44 -123 77 0
-101 14 -121 -18 -33 0
-54 -97 -31 -15 -41 0
-46 24 -70 112 27 0
-100 -58 6 50 8 0
-79 -76 -98 102 -73 0
-21 93 -71 -88 -81 0
25 62 -87 56 -126 0
22 -51 -44 -123 77 0
125 90 -1 -65 -92 0
78 -111 -2 100 58 0
-53 -103 42 -34 63 0
21 -93 -71 88 81 0
-64 84 86 48 -105 0
-55 -17 82 -26 107 0
112 -27 -118 -99 7 0
-29 -60 12 72 67 0
-88 81 75 -53 -103 0
-43 109 -85 46 -24 0
-21 -93 -71 -88 81 0
29 -60 -12 -72 -67 0
-65 -92 35 -4 36 0
-55 17 82 26 107 0
56 126 106 -55 17 0
-54 -97 31 -15 41 0
39 -122 37 -78 111 0
-29 60 -12 -72 -67 0
-54 97 31 -15 -41 0
-15 41 -69 25 -62 0
10 13 47 -21 -93 0
-102 -73 -89 -30 -52 0
30 -52 124 -5 104 0
-43 109 85 -46 -24 0
-68 16 66 -22 -51 0
39 122 37 78 111 0
21 -93 71 -88 81 0
125 -90 1 -65 -92 0
21 -93 -71 -88 -81 0
34 -63 110 -114 -74 0
-39 -122 37 78 111 0
102 73 -89 30 52 0
-21 -93 -71 88 -81 0
-10 13 -47 21 93 0
21 93 71 -88 -81 0
95 -61 116 -20 120 0
25 62 -87 -56 126 0
20 -120 -113 -101 -14 0
22 51 -44 123 77 0
20 -120 113 -101 14 0
123 77 94 43 -109 0
20 120 113 101 14 0
-22 51 44 123 77 0
20 120 113 -101 -14 0
88 -81 75 -53 -103 0
22 51 -44 -123 -77 0
100 58 -6 50 -8 0
100 -58 6 -50 8 0
-53 103 42 34 63 0
-15 -41 69 25 -62 0
4 -36 -119 3 -23 0
-123 -77 94 -43 109 0
56 126 -106 55 17 0
-53 103 -42 -34 63 0
65 -92 35 -4 -36 0
88 81 75 -53 103 0
-26 -107 9 -79 -76 0
123 -77 -94 43 -109 0
-30 52 -124 5 104 0
-28 -96 59 -68 16 0
56 126 106 55 -17 0
34 63 110 114 -74 0
-45 -117 -115 -28 -96 0
-5 104 32 -10 13 0
-3 -23 -91 29 60 0
79 -76 98 102 -73 0
18 -33 80 54 97 0
99 -7 19 83 49 0
-68 -16 66 22 -51 0
55 17 -82 26 107 0
-4 36 119 3 23 0
79 76 -98 102 -73 0
-28 96 -59 68 -16 0
-95 61 116 20 -120 0
-99 -7 -19 -83 -49 0
64 -84 86 -48 105 0
-18 33 80 -54 -97 0
-30 52 124 -5 104 0
54 97 31 -15 41 0
30 52 -124 -5 104 0
68 16 -66 22 51 0
5 -104 -32 10 13 0
72 -67 40 64 84 0
-26 107 9 -79 76 0
4 36 119 -3 23 0
-28 96 -59 -68 16 0
-78 111 -2 -100 -58 0
112 -27 118 99 7 0
123 -77 -94 -43 109 0
99 7 -19 -83 -49 0
-79 -76 98 102 73 0
28 96 59 -68 16 0
114 -74 -11 -125 -90 0
65 92 -35 -4 -36 0
-112 -27 -118 -99 -7 0
25 62 87 -56 -126 0
39 122 -37 78 -111 0
21 93 -71 -88 81 0
-65 -92 -35 -4 -36 0
-46 24 -70 -112 -27 0
-25 62 87 -56 126 0
-45 -117 115 28 -96 0
48 -105 57 45 117 0
-72 -67 -40 -64 -84 0
-102 73 -89 30 -52 0
-72 -67 40 -64 84 0
18 33 -80 -54 -97 0
50 -8 -38 -95 61 0
112 27 -118 99 7 0
28 96 -59 68 16 0
-29 60 -12 72 67 0
78 -111 -2 -100 -58 0
101 -14 121 18 -33 0
78 111 2 100 58 0
-123 77 94 43 109 0
4 -36 -119 -3 23 0
-56 126 -106 -55 17 0
-72 -67 40 64 -84 0
-25 62 87 56 -126 0
-29 -60 -12 72 -67 0
48 105 57 45 -117 0
26 107 -9 79 -76 0
-56 -126 106 -55 17 0
-4 -36 -119 3 23 0
-56 126 -106 55 -17 0
72 67 -40 64 84 0
10 13 -47 21 -93 0
34 63 110 -114 74 0
25 -62 87 56 -126 0
114 74 -11 125 -90 0
-112 27 118 99 7 0
15 -41 -69 25 -62 0
28 -96 59 -68 -16 0
56 -126 106 -55 -17 0
-10 -13 -47 21 -93 0
102 73 89 -30 52 0
18 33 80 54 -97 0
-20 -120 113 -101 -14 0
72 67 -40 -64 -84 0
34 -63 -110 114 -74 0
20 -120 113 101 -14 0
-28 -96 -59 -68 -16 0
101 14 -121 -18 33 0
-101 -14 121 -18 -33 0
65 -92 -35 -4 36 0
-95 -61 116 -20 -120 0
114 -74 11 -125 90 0
-65 92 -35 -4 36 0
22 -51 44 123 77 0
-65 92 35 4 36 0
64 84 86 -48 -105 0
-50 8 38 95 61 0
-112 27 -118 -99 7 0
-46 -24 -70 112 -27 0
-64 -84 -86 -48 105 0
-5 -104 -32 -10 13 0
25 -62 -87 -56 -126 0
54 97 -31 15 41 0
46 -24 70 112 -27 0
-78 111 -2 100 58 0
-112 27 118 -99 -7 0
25 -62 87 -56 126 0
46 24 -70 -112 27 0
50 -8 38 -95 -61 0
-53 103 -42 34 -63 0
-30 52 -124 -5 -104 0
65 92 35 -4 36 0
-55 17 -82 -26 107 0
-22 51 -44 -123 77 0
53 103 42 -34 63 0
-125 -90 -1 -65 -92 0
-20 120 -113 -101 -14 0
114 74 11 -125 -90 0
10 13 -47 -21 93 0
20 120 -113 101 -14 0
25 62 87 56 126 0
79 76 98 102 73 0
-88 -81 75 -53 103 0
-83 -49 108 39 122 0
5 104 32 10 13 0
-48 -105 57 45 -117 0
39 -122 -37 78 111 0
-25 -62 87 56 126 0
-114 74 11 -125 90 0
-34 63 110 -114 -74 0
99 -7 -19 83 -49 0
29 60 12 -72 -67 0
5 -104 32 10 -13 0
39 122 37 -78 -111 0
26 -107 -9 79 76 0
-101 -14 -121 18 -33 0
-46 -24 70 112 27 0
3 -23 -91 -29 60 0
-50 -8 38 -95 61 0
-64 84 -86 -48 -105 0
-64 -84 -86 48 -105 0
46 24 -70 112 -27 0
-15 41 -69 -25 62 0
-43 109 -85 -46 24 0
-26 -107 -9 -79 76 0
-43 109 85 46 24 0
-39 -122 -37 -78 111 0
-83 49 -108 39 122 0
100 -58 -6 50 8 0
83 49 108 -39 -122 0
123 77 94 -43 109 0
-15 41 69 25 62 0
101 -14 -121 18 33 0
55 -17 82 26 107 0
-65 92 35 -4 -36 0
-26 -107 -9 79 -76 0
78 -111 2 -100 58 0
-26 107 -9 79 76 0
-4 -36 119 -3 23 0
-39 122 37 78 -111 0
29 60 -12 -72 67 0
-125 90 1 -65 -92 0
-43 -109 85 46 -24 0
48 -105 57 -45 -117 0
-15 -41 -69 25 62 0
64 84 -86 -48 105 0
99 7 19 -83 49 0
-78 -111 -2 -100 58 0
46 24 70 112 27 0
-46 -24 70 -112 -27 0
22 -51 -44 123 -77 0
54 -97 31 15 41 0
-18 -33 80 -54 97 0
-18 -33 80 54 -97 0
123 77 -94 43 109 0
-88 -81 -75 53 103 0
83 49 -108 -39 122 0
43 -109 -85 46 -24 0
-50 -8 -38 -95 -61 0
-10 13 47 -21 93 0
50 8 -38 95 61 0
-114 -74 11 125 90 0
-18 33 80 54 97 0
-5 -104 -32 10 -13 0
26 107 9 79 76 0
22 51 44 -123 77 0
20 -120 -113 101 14 0
65 -92 35 4 36 0
-22 -51 -44 123 77 0
-83 -49 -108 39 -122 0
-20 120 113 101 -14 0
-101 -14 -121 -18 33 0
43 109 85 -46 24 0
78 111 -2 -100 58 0
72 -67 -40 -64 84 0
53 103 -42 -34 -63 0
-112 27 -118 99 -7 0
112 -27 -118 99 -7 0
-10 -13 47 -21 -93 0
-4 36 -119 -3 23 0
101 -14 121 -18 33 0
15 41 -69 25 62 0
26 -107 -9 -79 -76 0
88 81 75 53 -103 0
68 16 -66 -22 -51 0
-48 105 -57 -45 117 0
-112 -27 -118 99 7 0
34 63 -110 -114 -74 0
-3 23 91 -29 -60 0
53 103 42 34 -63 0
55 17 82 26 -107 0
-68 -16 66 -22 51 0
-3 23 91 29 60 0
10 -13 47 21 -93 0
-56 -126 -106 -55 -17 0
-114 74 11 125 -90 0
83 -49 108 39 -122 0
-21 -93 71 88 81 0
72 -67 -40 64 -84 0
-21 93 71 -88 81 0
-26 107 -9 -79 -76 0
-125 90 -1 65 -92 0
68 -16 66 -22 -51 0
64 84 -86 48 -105 0
-25 62 -87 -56 -126 0
83 -49 -108 39 122 0
-53 103 42 -34 -63 0
-10 13 47 21 -93 0
68 -16 -66 -22 51 0
18 33 -80 54 97 0
4 -36 119 -3 -23 0
-18 -33 -80 54 97 0
-21 93 -71 88 81 0
-79 76 98 102 -73 0
114 74 -11 -125 90 0
26 107 9 -79 -76 0
-53 -103 -42 -34 -63 0
-46 -24 -70 -112 27 0
83 49 -108 39 -122 0
99 -7 -19 -83 49 0
3 23 -91 29 60 0
48 105 -57 45 117 0
-30 -52 124 -5 -104 0
79 76 -98 -102 73 0
-79 -76 98 -102 -73 0
3 -23 91 -29 -60 0
15 -41 69 -25 -62 0
-114 -74 -11 -125 90 0
54 97 -31 -15 -41 0
53 -103 42 34 63 0
-64 84 -86 48 105 0
123 -77 94 -43 -109 0
22 51 44 123 -77 0
-78 -111 2 100 58 0
-26 -107 9 79 76 0
29 60 -12 72 -67 0
-99 7 -19 83 -49 0
-79 76 98 -102 73 0
-64 -84 86 48 105 0
18 -33 -80 54 -97 0
-55 17 -82 26 -107 0
-20 120 -113 101 14 0
10 -13 47 -21 93 0
46 -24 70 -112 27 0
100 -58 6 50 -8 0
20 120 -113 -101 14 0
-55 17 82 -26 -107 0
30 52 -124 5 -104 0
50 8 38 -95 61 0
101 14 121 -18 -33 0
-123 -77 -94 -43 -109 0
-101 14 -121 18 33 0
22 -51 44 -123 -77 0
-29 -60 -12 -72 67 0
-56 -126 -106 55 17 0
-55 -17 -82 26 107 0
-4 -36 119 3 -23 0
-72 67 -40 64 -84 0
-123 77 -94 43 -109 0
45 117 115 -28 96 0
102 73 -89 -30 -52 0
95 61 -116 -20 120 0
95 -61 116 20 -120 0
-53 -103 42 34 -63 0
-45 -117 115 -28 96 0
-101 14 121 18 -33 0
25 -62 -87 56 126 0
-56 -126 106 55 -17 0
-21 -93 71 -88 -81 0
95 -61 -116 -20 -120 0
-95 -61 -116 -20 120 0
-54 97 31 15 41 0
45 -117 -115 28 -96 0
-5 104 -32 10 13 0
-83 -49 -108 -39 122 0
-125 90 1 65 92 0
-29 60 12 72 -67 0
-50 8 -38 -95 61 0
29 -60 -12 72 67 0
-4 -36 -119 -3 -23 0
29 -60 12 72 -67 0
64 -84 86 48 -105 0
-22 -51 -44 -123 -77 0
-25 -62 -87 56 -126 0
30 52 124 5 104 0
45 -117 115 28 96 0
-22 -51 44 123 -77 0
54 -97 -31 -15 41 0
88 -81 75 53 103 0
125 -90 1 65 92 0
21 93 71 88 81 0
-99 7 19 -83 -49 0
-56 126 106 55 17 0
28 -96 -59 68 -16 0
-100 58 6 50 -8 0
21 -93 71 88 -81 0
-43 -109 -85 46 24 0
-5 -104 32 -10 -13 0
10 -13 -47 21 93 0
-83 49 108 39 -122 0
114 -74 -11 125 90 0
-65 -92 -35 4 36 0
-28 96 59 68 16 0
-83 49 108 -39 122 0
-72 -67 -40 64 84 0
48 -105 -57 -45 117 0
-102 73 89 30 52 0
46 -24 -70 -112 -27 0
26 -107 9 -79 76 0
45 117 -115 -28 -96 0
39 -122 37 78 -111 0
125 -90 -1 -65 92 0
68 -16 -66 22 -51 0
-25 62 -87 56 126 0
-48 105 57 45 117 0
88 -81 -75 53 -103 0
-65 92 -35 4 -36 0
39 -122 -37 -78 -111 0
-39 122 -37 78 111 0
43 -109 85 46 24 0
-43 -109 85 -46 24 0
114 -74 11 125 -90 0
65 92 35 4 -36 0
56 -126 -106 -55 17 0
-125 -90 1 -65 92 0
10 13 47 21 93 0
-18 33 -80 54 -97 0
-95 61 -116 -20 -120 0
64 -84 -86 48 105 0
-39 -122 -37 78 -111 0
125 -90 -1 65 -92 0
53 103 -42 34 63 0
-54 97 -31 -15 41 0
-114 -74 11 -125 -90 0
-15 -41 -69 -25 -62 0
68 -16 66 22 51 0
123 -77 94 43 109 0
53 -103 42 -34 -63 0
-102 -73 89 -30 52 0
54 -97 31 -15 -41 0
88 -81 -75 -53 103 0
-3 -23 91 29 -60 0
-99 -7 19 -83 49 0
-20 -120 113 101 14 0
99 -7 19 -83 -49 0
-68 -16 -66 -22 -51 0
79 -76 -98 -102 -73 0
-100 58 -6 50 8 0
53 -103 -42 34 -63 0
-78 111 2 -100 58 0
50 -8 -38 95 -61 0
-114 74 -11 125 90 0
-100 -58 -6 -50 8 0
3 23 91 -29 60 0
-114 -74 -11 125 -90 0
-100 -58 -6 50 -8 0
18 -33 80 -54 -97 0
-48 105 57 -45 -117 0
-99 7 19 83 49 0
54 -97 -31 15 -41 0
-18 33 -80 -54 97 0
-123 77 94 -43 -109 0
-72 67 40 -64 -84 0
-68 -16 -66 22 51 0
-83 49 -108 -39 -122 0
-48 -105 -57 -45 -117 0
95 61 116 20 120 0
79 -76 -98 102 73 0
-68 16 -66 -22 51 0
-88 81 -75 53 -103 0
4 36 -119 3 23 0
78 111 2 -100 -58 0
-5 104 32 10 -13 0
15 -41 69 25 62 0
112 27 -118 -99 -7 0
34 -63 110 114 74 0
-53 -103 -42 34 63 0
-100 -58 6 -50 -8 0
39 122 -37 -78 111 0
46 24 70 -112 -27 0
-26 107 9 79 -76 0
-102 73 89 -30 -52 0
28 96 59 68 -16 0
55 17 -82 -26 -107 0
-39 122 37 -78 111 0
-39 -122 37 -78 -111 0
-112 -27 118 99 -7 0
48 105 -57 -45 -117 0
-45 -117 -115 28 96 0
54 97 31 15 -41 0
88 81 -75 53 103 0
28 96 -59 -68 -16 0
-88 -81 75 53 -103 0
-101 14 121 -18 33 0
55 -17 82 -26 -107 0
-15 41 69 -25 -62 0
-102 73 -89 -30 52 0
64 -84 -86 -48 -105 0
45 117 -115 28 96 0
-50 8 -38 95 -61 0
-30 -52 -124 5 -104 0
-30 -52 124 5 104 0
-3 23 -91 -29 60 0
95 61 -116 20 -120 0
30 -52 -124 -5 -104 0
-79 76 -98 -102 -73 0
-30 52 124 5 -104 0
-45 117 -115 -28 96 0
72 67 40 64 -84 0
43 -109 85 -46 -24 0
30 -52 124 5 -104 0
-45 117 -115 28 -96 0
79 -76 98 -102 73 0
-102 -73 89 30 -52 0
4 36 119 3 -23 0
-25 -62 87 -56 -126 0
65 -92 -35 4 -36 0
99 7 -19 83 49 0
-95 61 116 -20 120 0
-78 -111 2 -100 -58 0
112 27 118 99 -7 0
68 16 66 22 -51 0
-48 -105 57 -45 117 0
-50 -8 38 95 -61 0
-45 117 115 28 96 0
-25 -62 -87 -56 126 0
-10 -13 -47 -21 93 0
-68 16 -66 22 -51 0
-34 63 -110 114 -74 0
-34 -63 -110 -114 -74 0
-68 16 66 22 51 0
-95 -61 116 20 120 0
15 41 69 -25 62 0
-46 24 70 -112 27 0
34 -63 -110 -114 74 0
29 -60 12 -72 67 0
-123 -77 94 43 -109 0
50 8 -38 -95 -61 0
100 58 6 -50 -8 0
15 -41 -69 -25 62 0
102 -73 89 30 52 0
95 61 116 -20 -120 0
-95 -61 -116 20 -120 0
-56 126 106 -55 -17 0
3 23 -91 -29 -60 0
-20 -120 -113 101 -14 0
5 -104 32 -10 13 0
21 93 -71 88 -81 0
28 -96 59 68 16 0
-55 -17 -82 -26 -107 0
-54 -97 31 15 -41 0
43 109 -85 46 24 0
45 -117 -115 -28 96 0
-102 -73 -89 30 52 0
83 49 108 39 122 0
45 117 115 28 -96 0
48 -105 -57 45 -117 0
-99 -7 -19 83 49 0
-125 -90 -1 65 92 0
78 111 -2 100 -58 0
-28 -96 59 68 -16 0
-65 -92 35 4 -36 0
79 76 98 -102 -73 0
c p weight 1 0.0172544 0
c p weight -1 0.9827456 0
c p weight 2 0.99636526 0
c p weight -2 0.00363474 0
c p weight 3 0.99757943 0
c p weight -3 0.00242057 0
c p weight 4 0.99071654 0
c p weight -4 0.00928346 0
c p weight 5 0.9854946 0
c p weight -5 0.0145054 0
c p weight 6 0.9870664 0
c p weight -6 0.0129336 0
c p weight 7 0.99350436 0
c p weight -7 0.00649564 0
c p weight 8 0.9888066 0
c p weight -8 0.0111934 0
c p weight 9 0.98712536 0
c p weight -9 0.01287464 0
c p weight 10 0.99753823 0
c p weight -10 0.00246177 0
c p weight 11 0.98862079 0
c p weight -11 0.01137921 0
c p weight 12 0.99953678 0
c p weight -12 0.00046322 0
c p weight 13 0.98212317 0
c p weight -13 0.01787683 0
c p weight 14 0.98656459 0
c p weight -14 0.01343541 0
c p weight 15 0.98917369 0
c p weight -15 0.01082631 0
c p weight 16 0.99528683 0
c p weight -16 0.00471317 0
c p weight 17 0.99908948 0
c p weight -17 0.00091052 0
c p weight 18 0.99002558 0
c p weight -18 0.00997442 0
c p weight 19 0.01694085 0
c p weight -19 0.98305915 0
c p weight 20 0.98123384 0
c p weight -20 0.01876616 0
c p weight 21 0.98969862 0
c p weight -21 0.01030138 0
c p weight 22 0.99361865 0
c p weight -22 0.00638135 0
c p weight 23 0.99964598 0
c p weight -23 0.00035402 0
c p weight 24 0.99099931 0
c p weight -24 0.00900069 0
c p weight 25 0.98852365 0
c p weight -25 0.01147635 0
c p weight 26 0.98084378 0
c p weight -26 0.01915622 0
c p weight 27 0.98704061 0
c p weight -27 0.01295939 0
c p weight 28 0.98840095 0
c p weight -28 0.01159905 0
c p weight 29 0.98953074 0
c p weight -29 0.01046926 0
c p weight 30 0.98124843 0
c p weight -30 0.01875157 0
c p weight 31 0.01565182 0
c p weight -31 0.98434818 0
c p weight 32 0.99852494 0
c p weight -32 0.00147506 0
c p weight 33 0.98589239 0
c p weight -33 0.01410761 0
c p weight 34 0.99783258 0
c p weight -34 0.00216742 0
c p weight 35 0.00133404 0
c p weight -35 0.99866596 0
c p weight 36 0.98889638 0
c p weight -36 0.01110362 0
c p weight 37 0.99934976 0
c p weight -37 0.00065024 0
c p weight 38 0.01534645 0
c p weight -38 0.98465355 0
c p weight 39 0.9933668 0
c p weight -39 0.0066332 0
c p weight 40 0.00883542 0
c p weight -40 0.99116458 0
c p weight 41 0.98209364 0
c p weight -41 0.01790636 0
c p weight 42 0.00642184 0
c p weight -42 0.99357816 0
c p weight 43 0.99962339 0
c p weight -43 0.00037661 0
c p weight 44 0.01712366 0
c p weight -44 0.98287634 0
c p weight 45 0.99230612 0
c p weight -45 0.00769388 0
c p weight 46 0.98251629 0
c p weight -46 0.01748371 0
c p weight 47 0.98163847 0
c p weight -47 0.01836153 0
c p weight 48 0.98093416 0
c p weight -48 0.01906584 0
c p weight 49 0.98798619 0
c p weight -49 0.01201381 0
c p weight 50 0.98749766 0
c p weight -50 0.01250234 0
c p weight 51 0.98246801 0
c p weight -51 0.01753199 0
c p weight 52 0.99826706 0
c p weight -52 0.00173294 0
c p weight 53 0.98305332 0
c p weight -53 0.01694668 0
c p weight 54 0.98899088 0
c p weight -54 0.01100912 0
c p weight 55 0.98049776 0
c p weight -55 0.01950224 0
c p weight 56 0.98065769 0
c p weight -56 0.01934231 0
c p weight 57 0.01426146 0
c p weight -57 0.98573854 0
c p weight 58 0.99181619 0
c p weight -58 0.00818381 0
c p weight 59 0.00940328 0
c p weight -59 0.99059672 0
c p weight 60 0.99437185 0
c p weight -60 0.00562815 0
c p weight 61 0.9965272 0
c p weight -61 0.0034728 0
c p weight 62 0.98003406 0
c p weight -62 0.01996594 0
c p weight 63 0.99277951 0
c p weight -63 0.00722049 0
c p weight 64 0.99246434 0
c p weight -64 0.00753566 0
c p weight 65 0.99133208 0
c p weight -65 0.00866792 0
c p weight 66 0.00757756 0
c p weight -66 0.99242244 0
c p weight 67 0.98537271 0
c p weight -67 0.01462729 0
c p weight 68 0.9995158 0
c p weight -68 0.0004842 0
c p weight 69 0.00544761 0
c p weight -69 0.99455239 0
c p weight 70 0.98754152 0
c p weight -70 0.01245848 0
c p weight 71 0.99991615 0
c p weight -71 8.385e-05 0
c p weight 72 0.99783857 0
c p weight -72 0.00216143 0
c p weight 73 0.99202727 0
c p weight -73 0.00797273 0
c p weight 74 0.98247854 0
c p weight -74 0.01752146 0
c p weight 75 0.0004338 0
c p weight -75 0.9995662 0
c p weight 76 0.98333754 0
c p weight -76 0.01666246 0
c p weight 77 0.99844936 0
c p weight -77 0.00155064 0
c p weight 78 0.99648978 0
c p weight -78 0.00351022 0
c p weight 79 0.99964146 0
c p weight -79 0.00035854 0
c p weight 80 0.00417568 0
c p weight -80 0.99582432 0
c p weight 81 0.99854895 0
c p weight -81 0.00145105 0
c p weight 82 0.0151742 0
c p weight -82 0.9848258 0
c p weight 83 0.9805935 0
c p weight -83 0.0194065 0
c p weight 84 0.98712213 0
c p weight -84 0.01287787 0
c p weight 85 0.01399155 0
c p weight -85 0.98600845 0
c p weight 86 0.99380736 0
c p weight -86 0.00619264 0
c p weight 87 0.999432 0
c p weight -87 0.000568 0
c p weight 88 0.99671264 0
c p weight -88 0.00328736 0
c p weight 89 0.01641213 0
c p weight -89 0.98358787 0
c p weight 90 0.99336781 0
c p weight -90 0.00663219 0
c p weight 91 0.01141226 0
c p weight -91 0.98858774 0
c p weight 92 0.99157293 0
c p weight -92 0.00842707 0
c p weight 93 0.99085008 0
c p weight -93 0.00914992 0
c p weight 94 0.0079295 0
c p weight -94 0.9920705 0
c p weight 95 0.98502568 0
c p weight -95 0.01497432 0
c p weight 96 0.98966079 0
c p weight -96 0.01033921 0
c p weight 97 0.9843745 0
c p weight -97 0.0156255 0
c p weight 98 0.9837808 0
c p weight -98 0.0162192 0
c p weight 99 0.98881096 0
c p weight -99 0.01118904 0
c p weight 100 0.98693471 0
c p weight -100 0.01306529 0
c p weight 101 0.98585872 0
c p weight -101 0.01414128 0
c p weight 102 0.9963513 0
c p weight -102 0.0036487 0
c p weight 103 0.9930184 0
c p weight -103 0.0069816 0
c p weight 104 0.98263 0
c p weight -104 0.01737 0
c p weight 105 0.99753173 0
c p weight -105 0.00246827 0
c p weight 106 0.01844517 0
c p weight -106 0.98155483 0
c p weight 107 0.98210274 0
c p weight -107 0.01789726 0
c p weight 108 0.98755791 0
c p weight -108 0.01244209 0
c p weight 109 0.99458728 0
c p weight -109 0.00541272 0
c p weight 110 0.00921794 0
c p weight -110 0.99078206 0
c p weight 111 0.99442988 0
c p weight -111 0.00557012 0
c p weight 112 0.99603785 0
c p weight -112 0.00396215 0
c p weight 113 0.99882403 0
c p weight -113 0.00117597 0
c p weight 114 0.99159556 0
c p weight -114 0.00840444 0
c p weight 115 0.01518328 0
c p weight -115 0.98481672 0
c p weight 116 0.98323 0
c p weight -116 0.01677 0
c p weight 117 0.99247599 0
c p weight -117 0.00752401 0
c p weight 118 0.00601899 0
c p weight -118 0.99398101 0
c p weight 119 0.01443772 0
c p weight -119 0.98556228 0
c p weight 120 0.98926864 0
c p weight -120 0.01073136 0
c p weight 121 0.99699495 0
c p weight -121 0.00300505 0
c p weight 122 0.98226518 0
c p weight -122 0.01773482 0
c p weight 123 0.98776693 0
c p weight -123 0.01223307 0
c p weight 124 0.98262046 0
c p weight -124 0.01737954 0
c p weight 125 0.98520581 0
c p weight -125 0.01479419 0
c p weight 126 0.99872801 0
c p weight -126 0.00127199 0
